p cnf 6 35
-4 -1 3 0
1 -3 -2 4 0
-5 6 -2 3 4 0
1 -2 5 3 0
-5 -4 0
-3 4 -2 1 -6 5 0
2 -1 0
-2 -1 4 0
4 -3 5 -2 0
3 -4 -2 0
5 -4 0
6 1 0
4 2 -5 0
-4 -6 0
-1 3 -5 -4 0
4 6 -3 -1 0
1 -2 3 0
3 6 0
1 2 3 -4 -5 0
-3 -6 -2 5 0
-6 -2 -4 3 -5 0
4 6 0
5 -1 6 -2 0
-5 2 0
-2 4 3 0
1 -4 -6 0
-5 -6 -2 0
2 6 -4 0
3 -5 0
-3 1 -4 -2 5 0
-4 6 -2 0
-6 2 -5 -1 -3 4 0
5 -2 4 3 0
6 5 0
-6 5 0
